811.81,46.38,52.97
890.07,42.3,48.31
825.94,45.59,52.07
804.12,46.83,53.48
681.39,55.26,63.11
841.05,44.77,51.13
780.75,48.23,55.08
800.89,47.01,53.69
758.04,49.67,56.73
801.93,46.95,53.62
751.97,50.07,57.19
828.85,45.43,51.88
890.15,42.3,48.31
787.22,47.83,54.63
849.17,44.34,50.64
764.15,49.27,56.28
845.89,44.51,50.84
825.44,45.62,52.1
883.48,42.62,48.68
785.97,47.91,54.71
